p edge 120 2304 96
e 1 2
e 1 3
e 1 4
e 1 5
e 1 6
e 1 7
e 1 8
e 1 9
e 1 10
e 1 11
e 1 12
e 1 13
e 1 14
e 1 15
e 1 16
e 1 17
e 1 18
e 1 19
e 1 20
e 1 21
e 1 22
e 1 23
e 1 24
e 1 25
e 1 26
e 1 27
e 1 28
e 1 29
e 1 30
e 1 31
e 1 32
e 1 33
e 1 34
e 1 35
e 1 36
e 1 37
e 1 38
e 1 39
e 1 40
e 1 41
e 1 42
e 1 44
e 1 45
e 1 46
e 1 47
e 1 49
e 1 50
e 1 51
e 1 52
e 1 53
e 1 54
e 1 55
e 1 56
e 1 57
e 1 58
e 1 60
e 1 62
e 1 63
e 1 64
e 1 65
e 1 66
e 1 67
e 1 70
e 1 71
e 1 73
e 1 74
e 1 75
e 1 78
e 1 84
e 1 86
e 1 87
e 1 88
e 1 89
e 1 90
e 1 91
e 1 95
e 1 96
e 1 98
e 1 100
e 1 101
e 1 105
e 1 106
e 1 110
e 1 119
e 1 120
e 2 26
e 2 27
e 2 28
e 2 29
e 2 30
e 2 33
e 2 34
e 2 35
e 2 37
e 2 38
e 2 39
e 2 40
e 2 41
e 2 42
e 2 44
e 2 45
e 2 48
e 2 49
e 2 51
e 2 58
e 2 61
e 2 63
e 2 67
e 2 68
e 2 72
e 2 73
e 2 76
e 2 78
e 2 89
e 2 90
e 2 99
e 2 103
e 2 105
e 2 110
e 2 114
e 2 115
e 2 116
e 3 26
e 3 27
e 3 28
e 3 29
e 3 30
e 3 31
e 3 32
e 3 33
e 3 34
e 3 35
e 3 36
e 3 37
e 3 39
e 3 42
e 3 43
e 3 49
e 3 50
e 3 56
e 3 64
e 3 69
e 3 70
e 3 71
e 3 76
e 3 82
e 3 93
e 3 97
e 3 104
e 3 106
e 3 111
e 3 115
e 3 116
e 3 119
e 4 26
e 4 27
e 4 28
e 4 29
e 4 30
e 4 31
e 4 33
e 4 34
e 4 35
e 4 36
e 4 37
e 4 38
e 4 39
e 4 40
e 4 41
e 4 44
e 4 46
e 4 49
e 4 50
e 4 52
e 4 53
e 4 54
e 4 61
e 4 62
e 4 63
e 4 71
e 4 75
e 4 76
e 4 77
e 4 78
e 4 83
e 4 84
e 4 86
e 4 88
e 4 89
e 4 94
e 4 95
e 4 109
e 5 26
e 5 27
e 5 29
e 5 30
e 5 31
e 5 32
e 5 33
e 5 34
e 5 35
e 5 42
e 5 43
e 5 46
e 5 47
e 5 48
e 5 49
e 5 53
e 5 54
e 5 59
e 5 61
e 5 65
e 5 73
e 5 81
e 5 82
e 5 86
e 5 89
e 5 100
e 5 101
e 6 26
e 6 27
e 6 29
e 6 31
e 6 32
e 6 38
e 6 39
e 6 41
e 6 42
e 6 47
e 6 48
e 6 50
e 6 51
e 6 55
e 6 56
e 6 58
e 6 68
e 6 69
e 6 71
e 6 75
e 6 82
e 6 83
e 6 86
e 6 88
e 6 92
e 6 93
e 6 97
e 6 98
e 6 104
e 6 106
e 6 114
e 7 26
e 7 27
e 7 28
e 7 29
e 7 32
e 7 34
e 7 35
e 7 37
e 7 38
e 7 39
e 7 40
e 7 44
e 7 45
e 7 46
e 7 48
e 7 53
e 7 60
e 7 66
e 7 71
e 7 90
e 7 96
e 7 97
e 7 102
e 7 107
e 7 109
e 7 112
e 7 113
e 7 117
e 8 26
e 8 27
e 8 28
e 8 29
e 8 30
e 8 31
e 8 32
e 8 33
e 8 36
e 8 38
e 8 41
e 8 43
e 8 50
e 8 57
e 8 59
e 8 62
e 8 70
e 8 74
e 8 79
e 8 90
e 8 95
e 8 100
e 8 114
e 8 116
e 8 118
e 8 119
e 9 26
e 9 27
e 9 28
e 9 29
e 9 30
e 9 31
e 9 33
e 9 34
e 9 36
e 9 39
e 9 40
e 9 41
e 9 45
e 9 51
e 9 56
e 9 65
e 9 69
e 9 71
e 9 73
e 9 77
e 9 87
e 9 109
e 9 114
e 9 117
e 9 119
e 10 26
e 10 27
e 10 28
e 10 29
e 10 30
e 10 31
e 10 32
e 10 33
e 10 34
e 10 35
e 10 36
e 10 37
e 10 38
e 10 40
e 10 41
e 10 42
e 10 43
e 10 45
e 10 47
e 10 50
e 10 52
e 10 53
e 10 54
e 10 55
e 10 56
e 10 58
e 10 60
e 10 61
e 10 62
e 10 64
e 10 69
e 10 70
e 10 71
e 10 77
e 10 79
e 10 89
e 10 96
e 10 102
e 10 103
e 10 104
e 10 105
e 10 108
e 10 114
e 10 115
e 11 26
e 11 27
e 11 28
e 11 29
e 11 30
e 11 31
e 11 32
e 11 33
e 11 34
e 11 36
e 11 37
e 11 38
e 11 40
e 11 50
e 11 51
e 11 65
e 11 66
e 11 73
e 11 78
e 11 81
e 11 83
e 11 85
e 11 91
e 11 98
e 11 108
e 11 115
e 12 26
e 12 27
e 12 28
e 12 29
e 12 30
e 12 31
e 12 32
e 12 33
e 12 34
e 12 35
e 12 37
e 12 39
e 12 41
e 12 43
e 12 44
e 12 45
e 12 48
e 12 50
e 12 51
e 12 52
e 12 53
e 12 57
e 12 59
e 12 60
e 12 72
e 12 73
e 12 79
e 12 82
e 12 84
e 12 85
e 12 88
e 12 92
e 12 94
e 12 96
e 12 100
e 12 111
e 12 112
e 12 114
e 12 116
e 12 118
e 13 26
e 13 27
e 13 28
e 13 29
e 13 30
e 13 31
e 13 32
e 13 33
e 13 34
e 13 35
e 13 36
e 13 37
e 13 38
e 13 39
e 13 41
e 13 42
e 13 43
e 13 46
e 13 49
e 13 54
e 13 62
e 13 65
e 13 68
e 13 78
e 13 80
e 13 85
e 13 86
e 13 107
e 13 108
e 13 115
e 13 118
e 14 26
e 14 27
e 14 28
e 14 29
e 14 30
e 14 34
e 14 38
e 14 43
e 14 47
e 14 57
e 14 59
e 14 64
e 14 66
e 14 69
e 14 70
e 14 72
e 14 73
e 14 79
e 14 83
e 14 87
e 14 88
e 14 92
e 14 94
e 14 97
e 14 98
e 14 99
e 14 103
e 14 106
e 14 107
e 14 108
e 14 109
e 14 113
e 14 115
e 14 119
e 15 26
e 15 27
e 15 28
e 15 29
e 15 32
e 15 36
e 15 41
e 15 46
e 15 50
e 15 51
e 15 55
e 15 56
e 15 57
e 15 59
e 15 61
e 15 66
e 15 79
e 15 80
e 15 84
e 15 92
e 15 96
e 15 101
e 15 110
e 15 112
e 15 118
e 15 119
e 16 26
e 16 28
e 16 30
e 16 31
e 16 32
e 16 33
e 16 34
e 16 35
e 16 36
e 16 38
e 16 39
e 16 44
e 16 45
e 16 46
e 16 51
e 16 52
e 16 53
e 16 59
e 16 61
e 16 63
e 16 65
e 16 68
e 16 95
e 16 96
e 16 101
e 16 110
e 17 26
e 17 27
e 17 28
e 17 29
e 17 30
e 17 31
e 17 32
e 17 33
e 17 34
e 17 35
e 17 39
e 17 40
e 17 41
e 17 43
e 17 46
e 17 47
e 17 49
e 17 50
e 17 53
e 17 55
e 17 62
e 17 63
e 17 70
e 17 77
e 17 83
e 17 94
e 17 96
e 17 99
e 17 102
e 17 103
e 17 105
e 17 108
e 17 113
e 17 115
e 18 26
e 18 27
e 18 28
e 18 29
e 18 30
e 18 31
e 18 32
e 18 34
e 18 36
e 18 37
e 18 43
e 18 44
e 18 45
e 18 47
e 18 48
e 18 52
e 18 60
e 18 62
e 18 64
e 18 68
e 18 69
e 18 74
e 18 101
e 18 108
e 18 109
e 19 26
e 19 27
e 19 28
e 19 30
e 19 31
e 19 33
e 19 36
e 19 39
e 19 40
e 19 41
e 19 42
e 19 45
e 19 48
e 19 49
e 19 54
e 19 56
e 19 57
e 19 58
e 19 59
e 19 60
e 19 61
e 19 63
e 19 64
e 19 66
e 19 67
e 19 69
e 19 74
e 19 83
e 19 90
e 19 91
e 19 94
e 19 103
e 19 110
e 19 114
e 19 115
e 19 120
e 20 26
e 20 27
e 20 28
e 20 29
e 20 30
e 20 33
e 20 36
e 20 44
e 20 51
e 20 52
e 20 57
e 20 58
e 20 69
e 20 87
e 20 89
e 20 90
e 20 96
e 20 100
e 20 103
e 20 109
e 21 26
e 21 27
e 21 28
e 21 30
e 21 31
e 21 32
e 21 35
e 21 37
e 21 40
e 21 43
e 21 44
e 21 45
e 21 46
e 21 50
e 21 52
e 21 53
e 21 55
e 21 57
e 21 58
e 21 60
e 21 67
e 21 69
e 21 78
e 21 80
e 21 81
e 21 83
e 21 88
e 21 100
e 21 106
e 21 110
e 21 112
e 21 113
e 22 26
e 22 27
e 22 28
e 22 29
e 22 30
e 22 31
e 22 32
e 22 33
e 22 35
e 22 36
e 22 37
e 22 38
e 22 40
e 22 41
e 22 42
e 22 43
e 22 46
e 22 47
e 22 52
e 22 53
e 22 58
e 22 66
e 22 87
e 22 104
e 23 26
e 23 27
e 23 28
e 23 29
e 23 31
e 23 32
e 23 33
e 23 35
e 23 36
e 23 37
e 23 40
e 23 43
e 23 44
e 23 47
e 23 48
e 23 49
e 23 52
e 23 53
e 23 54
e 23 57
e 23 60
e 23 61
e 23 62
e 23 63
e 23 64
e 23 65
e 23 67
e 23 68
e 23 70
e 23 71
e 23 75
e 23 78
e 23 79
e 23 80
e 23 84
e 23 87
e 23 88
e 23 96
e 23 99
e 23 102
e 23 104
e 23 108
e 23 113
e 23 114
e 24 26
e 24 27
e 24 30
e 24 31
e 24 32
e 24 34
e 24 35
e 24 37
e 24 38
e 24 42
e 24 45
e 24 46
e 24 56
e 24 60
e 24 61
e 24 62
e 24 64
e 24 65
e 24 66
e 24 67
e 24 69
e 24 71
e 24 72
e 24 74
e 24 75
e 24 76
e 24 79
e 24 80
e 24 91
e 24 92
e 24 94
e 24 100
e 24 102
e 24 105
e 24 107
e 24 113
e 24 116
e 25 28
e 25 29
e 25 39
e 25 40
e 25 41
e 25 43
e 25 48
e 25 52
e 25 55
e 25 67
e 25 70
e 25 75
e 25 77
e 25 79
e 25 90
e 25 103
e 25 107
e 25 119
e 26 27
e 26 28
e 26 29
e 26 30
e 26 31
e 26 32
e 26 33
e 26 34
e 26 35
e 26 36
e 26 37
e 26 38
e 26 39
e 26 41
e 26 43
e 26 44
e 26 46
e 26 47
e 26 48
e 26 49
e 26 51
e 26 52
e 26 54
e 26 56
e 26 57
e 26 58
e 26 59
e 26 60
e 26 62
e 26 63
e 26 64
e 26 67
e 26 71
e 26 75
e 26 76
e 26 77
e 26 79
e 26 80
e 26 81
e 26 82
e 26 91
e 26 92
e 26 93
e 26 97
e 26 103
e 26 104
e 26 105
e 26 107
e 26 109
e 26 111
e 26 115
e 26 118
e 26 120
e 27 28
e 27 29
e 27 30
e 27 31
e 27 32
e 27 33
e 27 34
e 27 35
e 27 37
e 27 38
e 27 39
e 27 40
e 27 42
e 27 43
e 27 44
e 27 45
e 27 47
e 27 52
e 27 53
e 27 54
e 27 55
e 27 56
e 27 58
e 27 62
e 27 63
e 27 67
e 27 68
e 27 69
e 27 70
e 27 73
e 27 77
e 27 79
e 27 80
e 27 81
e 27 82
e 27 83
e 27 84
e 27 87
e 27 88
e 27 89
e 27 92
e 27 98
e 27 103
e 27 111
e 27 115
e 27 117
e 27 118
e 27 120
e 28 29
e 28 30
e 28 31
e 28 32
e 28 33
e 28 34
e 28 35
e 28 36
e 28 37
e 28 38
e 28 39
e 28 40
e 28 41
e 28 42
e 28 43
e 28 44
e 28 45
e 28 46
e 28 47
e 28 52
e 28 53
e 28 54
e 28 56
e 28 58
e 28 60
e 28 61
e 28 62
e 28 63
e 28 65
e 28 67
e 28 68
e 28 69
e 28 70
e 28 72
e 28 73
e 28 75
e 28 83
e 28 84
e 28 85
e 28 88
e 28 89
e 28 92
e 28 93
e 28 94
e 28 95
e 28 97
e 28 99
e 28 101
e 28 104
e 28 106
e 28 112
e 28 113
e 28 115
e 28 117
e 28 119
e 28 120
e 29 30
e 29 31
e 29 32
e 29 33
e 29 34
e 29 35
e 29 36
e 29 37
e 29 38
e 29 40
e 29 41
e 29 42
e 29 43
e 29 44
e 29 48
e 29 49
e 29 50
e 29 51
e 29 52
e 29 53
e 29 56
e 29 57
e 29 59
e 29 60
e 29 62
e 29 63
e 29 67
e 29 68
e 29 70
e 29 72
e 29 73
e 29 75
e 29 77
e 29 78
e 29 81
e 29 82
e 29 83
e 29 84
e 29 87
e 29 89
e 29 90
e 29 91
e 29 94
e 29 95
e 29 97
e 29 98
e 29 99
e 29 100
e 29 102
e 29 103
e 29 106
e 29 108
e 29 109
e 29 118
e 30 31
e 30 32
e 30 33
e 30 34
e 30 35
e 30 36
e 30 37
e 30 39
e 30 42
e 30 44
e 30 45
e 30 46
e 30 47
e 30 48
e 30 50
e 30 51
e 30 54
e 30 55
e 30 56
e 30 59
e 30 63
e 30 66
e 30 68
e 30 71
e 30 72
e 30 74
e 30 75
e 30 80
e 30 81
e 30 82
e 30 85
e 30 86
e 30 96
e 30 97
e 30 101
e 30 103
e 30 111
e 30 119
e 31 32
e 31 33
e 31 34
e 31 35
e 31 36
e 31 37
e 31 38
e 31 39
e 31 40
e 31 42
e 31 44
e 31 46
e 31 47
e 31 48
e 31 49
e 31 50
e 31 53
e 31 55
e 31 57
e 31 58
e 31 59
e 31 60
e 31 61
e 31 63
e 31 65
e 31 66
e 31 67
e 31 68
e 31 71
e 31 72
e 31 74
e 31 76
e 31 77
e 31 78
e 31 82
e 31 84
e 31 85
e 31 86
e 31 87
e 31 88
e 31 92
e 31 94
e 31 96
e 31 100
e 31 102
e 31 104
e 31 105
e 31 106
e 31 108
e 31 109
e 31 114
e 31 115
e 31 116
e 31 118
e 31 119
e 32 33
e 32 34
e 32 35
e 32 36
e 32 37
e 32 38
e 32 39
e 32 40
e 32 41
e 32 42
e 32 43
e 32 44
e 32 45
e 32 46
e 32 48
e 32 49
e 32 50
e 32 51
e 32 53
e 32 59
e 32 60
e 32 62
e 32 63
e 32 64
e 32 67
e 32 69
e 32 70
e 32 72
e 32 76
e 32 77
e 32 78
e 32 79
e 32 84
e 32 88
e 32 89
e 32 95
e 32 102
e 32 103
e 32 107
e 32 109
e 32 115
e 32 118
e 32 120
e 33 34
e 33 35
e 33 36
e 33 37
e 33 38
e 33 40
e 33 41
e 33 42
e 33 43
e 33 44
e 33 45
e 33 48
e 33 49
e 33 51
e 33 52
e 33 53
e 33 54
e 33 56
e 33 57
e 33 58
e 33 61
e 33 64
e 33 65
e 33 66
e 33 68
e 33 69
e 33 72
e 33 73
e 33 78
e 33 80
e 33 81
e 33 82
e 33 83
e 33 85
e 33 86
e 33 89
e 33 91
e 33 92
e 33 94
e 33 97
e 33 99
e 33 100
e 33 103
e 33 106
e 33 107
e 33 110
e 33 111
e 33 116
e 33 117
e 34 35
e 34 36
e 34 37
e 34 38
e 34 39
e 34 40
e 34 42
e 34 43
e 34 46
e 34 48
e 34 49
e 34 50
e 34 51
e 34 55
e 34 56
e 34 61
e 34 62
e 34 69
e 34 74
e 34 80
e 34 89
e 34 91
e 34 92
e 34 98
e 34 99
e 34 105
e 34 106
e 34 119
e 34 120
e 35 36
e 35 38
e 35 39
e 35 40
e 35 41
e 35 42
e 35 44
e 35 46
e 35 47
e 35 48
e 35 49
e 35 52
e 35 53
e 35 54
e 35 55
e 35 57
e 35 58
e 35 59
e 35 61
e 35 64
e 35 69
e 35 71
e 35 72
e 35 75
e 35 77
e 35 84
e 35 85
e 35 87
e 35 88
e 35 90
e 35 93
e 35 94
e 35 95
e 35 96
e 35 98
e 35 103
e 35 105
e 35 106
e 35 109
e 35 111
e 35 115
e 35 120
e 36 37
e 36 38
e 36 39
e 36 41
e 36 42
e 36 43
e 36 44
e 36 45
e 36 46
e 36 47
e 36 49
e 36 52
e 36 55
e 36 56
e 36 57
e 36 60
e 36 61
e 36 62
e 36 65
e 36 67
e 36 68
e 36 69
e 36 72
e 36 73
e 36 74
e 36 77
e 36 78
e 36 79
e 36 80
e 36 82
e 36 83
e 36 89
e 36 90
e 36 91
e 36 95
e 36 96
e 36 97
e 36 98
e 36 100
e 36 103
e 36 112
e 36 113
e 36 115
e 36 117
e 36 119
e 37 38
e 37 39
e 37 40
e 37 41
e 37 42
e 37 43
e 37 45
e 37 46
e 37 48
e 37 49
e 37 50
e 37 51
e 37 53
e 37 55
e 37 58
e 37 59
e 37 60
e 37 63
e 37 66
e 37 68
e 37 69
e 37 70
e 37 71
e 37 72
e 37 73
e 37 75
e 37 76
e 37 77
e 37 79
e 37 80
e 37 83
e 37 84
e 37 86
e 37 87
e 37 88
e 37 89
e 37 90
e 37 91
e 37 92
e 37 93
e 37 95
e 37 102
e 37 105
e 37 106
e 37 110
e 37 116
e 37 117
e 38 39
e 38 40
e 38 41
e 38 42
e 38 44
e 38 45
e 38 47
e 38 49
e 38 50
e 38 52
e 38 53
e 38 54
e 38 55
e 38 57
e 38 62
e 38 63
e 38 65
e 38 66
e 38 68
e 38 70
e 38 71
e 38 72
e 38 77
e 38 79
e 38 80
e 38 81
e 38 82
e 38 90
e 38 91
e 38 92
e 38 95
e 38 96
e 38 97
e 38 103
e 38 104
e 38 107
e 38 111
e 38 112
e 38 113
e 38 115
e 39 40
e 39 42
e 39 43
e 39 44
e 39 45
e 39 47
e 39 48
e 39 49
e 39 50
e 39 51
e 39 53
e 39 54
e 39 55
e 39 56
e 39 59
e 39 60
e 39 61
e 39 63
e 39 64
e 39 65
e 39 66
e 39 67
e 39 72
e 39 76
e 39 79
e 39 81
e 39 82
e 39 83
e 39 84
e 39 87
e 39 94
e 39 97
e 39 98
e 39 101
e 39 102
e 39 105
e 39 110
e 39 111
e 39 112
e 39 113
e 39 118
e 39 119
e 40 41
e 40 43
e 40 44
e 40 45
e 40 47
e 40 50
e 40 51
e 40 55
e 40 57
e 40 58
e 40 60
e 40 65
e 40 66
e 40 69
e 40 71
e 40 73
e 40 74
e 40 81
e 40 84
e 40 85
e 40 86
e 40 98
e 40 104
e 40 105
e 40 113
e 40 118
e 41 42
e 41 45
e 41 46
e 41 47
e 41 48
e 41 49
e 41 59
e 41 60
e 41 61
e 41 63
e 41 65
e 41 67
e 41 68
e 41 69
e 41 76
e 41 78
e 41 81
e 41 83
e 41 85
e 41 86
e 41 90
e 41 91
e 41 92
e 41 93
e 41 94
e 41 99
e 41 100
e 41 104
e 41 106
e 41 107
e 41 111
e 41 112
e 41 118
e 42 44
e 42 45
e 42 46
e 42 47
e 42 48
e 42 50
e 42 52
e 42 53
e 42 54
e 42 55
e 42 56
e 42 58
e 42 59
e 42 60
e 42 65
e 42 66
e 42 70
e 42 77
e 42 82
e 42 90
e 42 95
e 42 98
e 42 99
e 42 100
e 42 101
e 42 102
e 42 104
e 42 105
e 42 108
e 42 111
e 43 46
e 43 47
e 43 48
e 43 51
e 43 52
e 43 54
e 43 55
e 43 57
e 43 58
e 43 61
e 43 62
e 43 63
e 43 73
e 43 75
e 43 76
e 43 78
e 43 79
e 43 81
e 43 83
e 43 84
e 43 87
e 43 92
e 43 93
e 43 94
e 43 95
e 43 98
e 43 106
e 43 107
e 43 112
e 43 116
e 43 119
e 44 45
e 44 46
e 44 47
e 44 51
e 44 54
e 44 56
e 44 59
e 44 64
e 44 65
e 44 67
e 44 70
e 44 72
e 44 73
e 44 76
e 44 77
e 44 79
e 44 80
e 44 83
e 44 84
e 44 85
e 44 88
e 44 90
e 44 91
e 44 93
e 44 105
e 44 111
e 44 113
e 44 114
e 44 115
e 45 47
e 45 49
e 45 51
e 45 52
e 45 54
e 45 55
e 45 56
e 45 59
e 45 64
e 45 65
e 45 66
e 45 67
e 45 68
e 45 76
e 45 81
e 45 96
e 45 106
e 45 113
e 45 117
e 46 48
e 46 50
e 46 51
e 46 52
e 46 53
e 46 54
e 46 55
e 46 57
e 46 58
e 46 59
e 46 61
e 46 63
e 46 65
e 46 71
e 46 72
e 46 76
e 46 77
e 46 80
e 46 84
e 46 85
e 46 95
e 46 98
e 46 99
e 46 103
e 46 108
e 46 109
e 46 113
e 46 116
e 46 117
e 46 120
e 47 48
e 47 49
e 47 50
e 47 56
e 47 57
e 47 61
e 47 62
e 47 67
e 47 71
e 47 73
e 47 75
e 47 77
e 47 78
e 47 82
e 47 84
e 47 88
e 47 94
e 47 95
e 47 97
e 47 99
e 47 103
e 47 111
e 47 117
e 48 49
e 48 50
e 48 51
e 48 52
e 48 54
e 48 56
e 48 58
e 48 59
e 48 62
e 48 64
e 48 67
e 48 69
e 48 74
e 48 76
e 48 77
e 48 82
e 48 86
e 48 89
e 48 90
e 48 93
e 48 98
e 48 99
e 48 105
e 49 53
e 49 56
e 49 60
e 49 64
e 49 68
e 49 73
e 49 75
e 49 85
e 49 86
e 49 87
e 49 88
e 49 92
e 49 94
e 49 97
e 49 104
e 49 105
e 49 115
e 49 119
e 50 51
e 50 54
e 50 58
e 50 59
e 50 62
e 50 64
e 50 68
e 50 72
e 50 75
e 50 78
e 50 80
e 50 85
e 50 87
e 50 89
e 50 92
e 50 94
e 50 97
e 50 101
e 50 102
e 50 104
e 50 107
e 50 120
e 51 55
e 51 56
e 51 58
e 51 59
e 51 61
e 51 62
e 51 64
e 51 68
e 51 70
e 51 71
e 51 72
e 51 74
e 51 75
e 51 76
e 51 80
e 51 81
e 51 84
e 51 88
e 51 94
e 51 100
e 51 104
e 51 105
e 51 107
e 51 110
e 51 111
e 51 112
e 51 114
e 51 117
e 52 54
e 52 57
e 52 60
e 52 64
e 52 68
e 52 75
e 52 76
e 52 77
e 52 78
e 52 79
e 52 81
e 52 86
e 52 87
e 52 88
e 52 90
e 52 93
e 52 97
e 52 102
e 52 107
e 52 109
e 52 110
e 52 112
e 52 113
e 52 115
e 52 116
e 52 117
e 52 118
e 52 119
e 53 54
e 53 55
e 53 62
e 53 63
e 53 64
e 53 66
e 53 68
e 53 73
e 53 74
e 53 76
e 53 78
e 53 80
e 53 87
e 53 90
e 53 92
e 53 94
e 53 96
e 53 101
e 53 102
e 53 103
e 53 113
e 53 118
e 53 119
e 53 120
e 54 55
e 54 57
e 54 58
e 54 61
e 54 63
e 54 65
e 54 66
e 54 78
e 54 81
e 54 85
e 54 88
e 54 91
e 54 93
e 54 96
e 54 97
e 54 99
e 54 102
e 54 103
e 54 106
e 54 115
e 55 57
e 55 61
e 55 65
e 55 71
e 55 74
e 55 97
e 55 100
e 55 101
e 55 108
e 55 111
e 55 112
e 55 117
e 56 57
e 56 63
e 56 67
e 56 73
e 56 77
e 56 81
e 56 82
e 56 85
e 56 89
e 56 90
e 56 91
e 56 92
e 56 95
e 56 99
e 56 100
e 56 106
e 56 107
e 56 108
e 56 116
e 56 117
e 56 118
e 57 58
e 57 60
e 57 64
e 57 71
e 57 72
e 57 73
e 57 74
e 57 78
e 57 83
e 57 84
e 57 85
e 57 87
e 57 89
e 57 91
e 57 98
e 57 100
e 57 104
e 57 110
e 57 111
e 58 59
e 58 60
e 58 61
e 58 62
e 58 65
e 58 70
e 58 81
e 58 90
e 58 91
e 58 93
e 58 94
e 58 97
e 58 112
e 58 113
e 58 114
e 59 66
e 59 70
e 59 76
e 59 99
e 59 118
e 60 63
e 60 65
e 60 66
e 60 67
e 60 70
e 60 72
e 60 74
e 60 75
e 60 79
e 60 83
e 60 86
e 60 88
e 60 93
e 60 94
e 60 103
e 60 107
e 60 108
e 60 113
e 61 64
e 61 67
e 61 68
e 61 76
e 61 79
e 61 80
e 61 82
e 61 87
e 61 90
e 61 91
e 61 97
e 61 101
e 61 105
e 61 107
e 61 114
e 61 115
e 61 116
e 61 119
e 61 120
e 62 64
e 62 67
e 62 68
e 62 70
e 62 71
e 62 72
e 62 77
e 62 93
e 62 96
e 62 109
e 62 110
e 62 114
e 62 120
e 63 66
e 63 70
e 63 71
e 63 74
e 63 78
e 63 82
e 63 91
e 63 109
e 63 114
e 64 66
e 64 70
e 64 74
e 64 75
e 64 77
e 64 82
e 64 85
e 64 86
e 64 89
e 64 90
e 64 93
e 64 96
e 64 97
e 64 101
e 64 105
e 64 107
e 64 109
e 65 66
e 65 69
e 65 83
e 65 93
e 65 104
e 65 111
e 65 112
e 65 118
e 66 69
e 66 72
e 66 75
e 66 80
e 66 83
e 66 85
e 66 93
e 66 104
e 66 114
e 67 71
e 67 75
e 67 76
e 67 81
e 67 87
e 67 91
e 67 99
e 67 100
e 67 102
e 67 108
e 68 69
e 68 74
e 68 78
e 68 79
e 68 86
e 68 93
e 68 95
e 68 102
e 68 108
e 68 109
e 68 110
e 68 114
e 68 120
e 69 70
e 69 73
e 69 74
e 69 75
e 69 76
e 69 85
e 69 86
e 69 87
e 69 93
e 69 101
e 69 103
e 69 106
e 69 108
e 69 110
e 69 119
e 70 73
e 70 74
e 70 81
e 70 82
e 70 85
e 70 86
e 70 89
e 70 90
e 70 91
e 70 92
e 70 93
e 70 105
e 70 110
e 71 72
e 71 74
e 71 75
e 71 79
e 71 80
e 71 81
e 71 82
e 71 84
e 71 87
e 71 89
e 71 91
e 71 94
e 71 95
e 71 98
e 71 100
e 71 109
e 71 110
e 71 119
e 72 73
e 72 74
e 72 80
e 72 81
e 72 84
e 72 86
e 72 88
e 72 93
e 72 97
e 72 101
e 72 108
e 72 110
e 73 74
e 73 76
e 73 77
e 73 79
e 73 83
e 73 101
e 73 107
e 73 117
e 73 119
e 74 79
e 74 85
e 74 91
e 74 93
e 74 96
e 74 99
e 74 104
e 74 108
e 75 76
e 75 78
e 75 82
e 75 84
e 75 87
e 75 88
e 75 102
e 75 111
e 75 118
e 75 120
e 76 80
e 76 82
e 76 86
e 76 101
e 76 104
e 76 107
e 76 113
e 76 114
e 76 117
e 77 78
e 77 80
e 77 92
e 77 110
e 77 111
e 77 116
e 77 117
e 78 81
e 78 85
e 78 86
e 78 88
e 78 96
e 78 119
e 78 120
e 79 86
e 79 89
e 79 95
e 79 96
e 79 98
e 79 101
e 79 113
e 79 118
e 80 83
e 80 95
e 80 106
e 80 110
e 80 112
e 80 117
e 80 118
e 81 83
e 81 84
e 81 89
e 81 92
e 81 101
e 81 105
e 81 109
e 81 110
e 81 111
e 81 112
e 81 116
e 81 117
e 82 85
e 82 117
e 82 120
e 83 86
e 83 91
e 83 96
e 83 103
e 83 111
e 83 112
e 83 119
e 84 89
e 84 92
e 84 99
e 84 100
e 84 102
e 84 106
e 84 114
e 84 116
e 84 117
e 85 87
e 85 96
e 85 98
e 85 101
e 85 102
e 85 104
e 85 105
e 85 107
e 85 110
e 85 113
e 85 116
e 86 94
e 86 95
e 86 97
e 86 102
e 86 114
e 86 119
e 87 88
e 87 98
e 87 118
e 87 120
e 88 93
e 88 108
e 88 110
e 89 90
e 89 95
e 89 97
e 89 99
e 89 102
e 89 108
e 89 109
e 89 113
e 90 94
e 90 98
e 90 102
e 90 104
e 90 112
e 90 114
e 91 92
e 91 99
e 91 106
e 91 108
e 92 95
e 92 100
e 92 117
e 93 99
e 93 106
e 93 109
e 93 111
e 93 112
e 93 116
e 94 95
e 94 98
e 94 101
e 94 102
e 94 103
e 94 106
e 94 110
e 94 116
e 94 120
e 95 98
e 95 100
e 95 105
e 95 108
e 95 109
e 95 113
e 96 98
e 96 100
e 96 109
e 97 99
e 97 101
e 97 104
e 97 106
e 97 107
e 97 111
e 98 99
e 98 100
e 98 105
e 98 107
e 98 112
e 98 113
e 98 116
e 98 117
e 98 120
e 99 101
e 99 115
e 100 104
e 100 107
e 100 108
e 100 115
e 100 116
e 102 109
e 102 112
e 102 114
e 102 116
e 103 114
e 103 117
e 103 120
e 104 120
e 105 112
e 106 116
e 106 120
e 107 120
e 108 118
e 109 111
e 110 112
e 110 114
e 113 115
e 113 116
e 113 118
e 116 118
